% Instancia problemática tipo: COSTOS_PROHIBITIVOS
% Razón: Costos de transporte extremadamente altos (>5000)
% Demanda total: 1629.74
% Suministro total: 1792.71
% Factor holgura: 1.1

nP = 3;
nT = 4;
nC1 = 5;
nC2 = 7;
nA = 67;
nD = 3;

arc_from = [1, 1, 1, 1, 2, 2, 2, 2, 3, 3, 3, 3, 4, 4, 4, 4, 4, 5, 5, 5, 5, 5, 6, 6, 6, 6, 6, 7, 7, 7, 7, 7, 8, 8, 8, 8, 8, 8, 8, 9, 9, 9, 9, 9, 9, 9, 10, 10, 10, 10, 10, 10, 10, 11, 11, 11, 11, 11, 11, 11, 12, 12, 12, 12, 12, 12, 12];
arc_to = [4, 5, 6, 7, 4, 5, 6, 7, 4, 5, 6, 7, 8, 9, 10, 11, 12, 8, 9, 10, 11, 12, 8, 9, 10, 11, 12, 8, 9, 10, 11, 12, 13, 14, 15, 16, 17, 18, 19, 13, 14, 15, 16, 17, 18, 19, 13, 14, 15, 16, 17, 18, 19, 13, 14, 15, 16, 17, 18, 19, 13, 14, 15, 16, 17, 18, 19];

supply = [597.57, 597.57, 597.57, 0, 0, 0, 0, 0, 0, 0, 0, 0, 0, 0, 0, 0, 0, 0, 0];
demand = [0, 0, 0, 0, 0, 0, 0, 145.04, 141.51, 138.22, 101.53, 84.05, 170.24, 175.76, 106.85, 138.88, 105.54, 160.85, 161.27];

max_capacity = [795, 1414, 3181];

install_cost = array2d(1..nA, 1..nD, [
  20, 24, 32,
  50, 62, 78,
  20, 24, 32,
  50, 62, 78,
  20, 24, 32,
  50, 62, 78,
  20, 24, 32,
  50, 62, 78,
  20, 24, 32,
  50, 62, 78,
  20, 24, 32,
  50, 62, 78,
  20, 24, 32,
  50, 62, 78,
  20, 24, 32,
  50, 62, 78,
  20, 24, 32,
  50, 62, 78,
  20, 24, 32,
  50, 62, 78,
  20, 24, 32,
  50, 62, 78,
  20, 24, 32,
  50, 62, 78,
  20, 24, 32,
  50, 62, 78,
  20, 24, 32,
  50, 62, 78,
  20, 24, 32,
  50, 62, 78,
  20, 24, 32,
  50, 62, 78,
  20, 24, 32,
  50, 62, 78,
  20, 24, 32,
  50, 62, 78,
  20, 24, 32,
  50, 62, 78,
  20, 24, 32,
  50, 62, 78,
  20, 24, 32,
  50, 62, 78,
  20, 24, 32,
  50, 62, 78,
  20, 24, 32,
  50, 62, 78,
  20, 24, 32,
  50, 62, 78,
  20, 24, 32,
  50, 62, 78,
  20, 24, 32,
  50, 62, 78,
  20, 24, 32,
  50, 62, 78,
  20, 24, 32,
  50, 62, 78,
  20, 24, 32,
  50, 62, 78,
  20, 24, 32,
  50, 62, 78,
  20, 24, 32,
  50, 62, 78,
  20, 24, 32,
  50, 62, 78,
  20, 24, 32,
  50, 62, 78,
  20, 24, 32
]);

trans_cost = [6925.87, 12129.24, 13247.05, 8975.85, 18086.50, 11347.07, 8176.97, 13089.44, 15948.97, 8017.27, 9675.74, 19927.24, 14748.17, 11571.50, 12763.64, 6815.06, 8370.46, 10071.28, 13824.63, 8451.72, 8303.26, 6064.90, 14466.54, 8434.13, 18581.30, 17894.53, 6062.86, 8570.07, 15034.67, 8213.55, 6984.68, 19032.71, 13565.65, 12090.07, 16769.29, 17112.45, 7856.15, 6453.96, 11465.77, 11353.68, 12005.37, 15936.14, 15100.47, 19762.48, 6476.27, 11039.32, 10089.54, 17925.09, 8729.85, 7853.13, 11729.20, 11328.22, 9178.18, 8747.10, 18848.98, 11646.96, 17920.24, 13254.88, 5758.82, 19989.24, 17540.41, 19534.94, 18895.50, 17730.44, 7494.67, 12284.62, 8206.21];
